p td 22 150
2 1
3 1
4 3
4 2
5 4
5 2
6 5
6 1
6 4
6 3
7 6
8 7
8 1
8 2
8 5
9 1
9 5
9 2
9 3
9 8
9 4
10 2
10 9
10 4
10 5
10 7
11 10
11 2
11 4
11 6
11 1
12 5
12 10
12 11
12 3
12 9
12 8
13 6
13 10
13 4
13 1
13 3
13 8
13 5
13 12
13 2
13 11
13 7
14 13
14 8
14 10
14 4
14 7
14 3
14 12
14 5
15 4
15 9
15 10
15 2
15 5
15 12
15 8
15 14
15 6
16 13
16 15
16 9
16 14
16 6
16 4
16 8
16 12
16 7
17 5
17 9
17 8
17 4
17 10
17 14
17 12
17 7
17 11
17 2
18 11
18 15
18 17
18 4
18 16
18 3
18 8
18 1
18 14
18 9
18 12
18 7
19 6
19 16
19 18
19 5
19 14
19 1
19 11
19 4
19 17
19 10
19 3
19 2
19 12
20 4
20 10
20 12
20 8
20 11
20 14
20 2
20 15
20 9
20 5
20 19
20 6
21 13
21 12
21 1
21 14
21 17
21 9
21 19
21 6
21 5
21 18
21 3
21 8
21 15
21 2
22 16
22 19
22 12
22 17
22 4
22 10
22 1
22 14
22 15
22 11
22 21
22 8
22 18
22 6
22 13
